Welcome to the CBC MILP Solver 
Version: Trunk
Build Date: Apr 16 2020 

Starting solution of the Linear programming relaxation problem using Primal Simplex

Using Python-MIP package version 1.8.1
Machines:  4 Jobs:  4
Order: 
Job  0 : machine 0 ( 10 ) machine 3 ( 1 ) machine 2 ( 6 ) machine 1 ( 7 ) 
Job  1 : machine 0 ( 1 ) machine 3 ( 7 ) machine 1 ( 5 ) machine 2 ( 8 ) 
Job  2 : machine 3 ( 9 ) machine 2 ( 3 ) machine 1 ( 7 ) machine 0 ( 1 ) 
Job  3 : machine 1 ( 7 ) machine 3 ( 3 ) machine 0 ( 9 ) machine 2 ( 10 ) 
K:  44
Job  0 , e: machine  0 ( 0 ) machine  1 ( 17 ) machine  2 ( 11 ) machine  3 ( 10 ) 
Job  1 , e: machine  0 ( 0 ) machine  1 ( 8 ) machine  2 ( 13 ) machine  3 ( 1 ) 
Job  2 , e: machine  0 ( 19 ) machine  1 ( 12 ) machine  2 ( 9 ) machine  3 ( 0 ) 
Job  3 , e: machine  0 ( 10 ) machine  1 ( 0 ) machine  2 ( 19 ) machine  3 ( 7 ) 
Job  0 , f: machine  0 ( 14 ) machine  1 ( 0 ) machine  2 ( 7 ) machine  3 ( 13 ) 
Job  1 , f: machine  0 ( 20 ) machine  1 ( 8 ) machine  2 ( 0 ) machine  3 ( 13 ) 
Job  2 , f: machine  0 ( 0 ) machine  1 ( 1 ) machine  2 ( 8 ) machine  3 ( 11 ) 
Job  3 , f: machine  0 ( 10 ) machine  1 ( 22 ) machine  2 ( 0 ) machine  3 ( 19 ) 
EST and LST:
Job: 0 Machine: 0 EST: 0 LST: 20
Job: 0 Machine: 1 EST: 17 LST: 37
Job: 0 Machine: 2 EST: 11 LST: 31
Job: 0 Machine: 3 EST: 10 LST: 30
Job: 1 Machine: 0 EST: 0 LST: 23
Job: 1 Machine: 1 EST: 8 LST: 31
Job: 1 Machine: 2 EST: 13 LST: 36
Job: 1 Machine: 3 EST: 1 LST: 24
Job: 2 Machine: 0 EST: 19 LST: 43
Job: 2 Machine: 1 EST: 12 LST: 36
Job: 2 Machine: 2 EST: 9 LST: 33
Job: 2 Machine: 3 EST: 0 LST: 24
Job: 3 Machine: 0 EST: 10 LST: 25
Job: 3 Machine: 1 EST: 0 LST: 15
Job: 3 Machine: 2 EST: 19 LST: 34
Job: 3 Machine: 3 EST: 7 LST: 22
Order:
Job: 0 Machine: 0 = 0 
Job: 0 Machine: 1 = 3 
Job: 0 Machine: 2 = 2 
Job: 0 Machine: 3 = 1 
Job: 1 Machine: 0 = 0 
Job: 1 Machine: 1 = 2 
Job: 1 Machine: 2 = 3 
Job: 1 Machine: 3 = 1 
Job: 2 Machine: 0 = 3 
Job: 2 Machine: 1 = 2 
Job: 2 Machine: 2 = 1 
Job: 2 Machine: 3 = 0 
Job: 3 Machine: 0 = 2 
Job: 3 Machine: 1 = 0 
Job: 3 Machine: 2 = 3 
Job: 3 Machine: 3 = 1 
Distances:
Job 0, Machine 0 -> Machine 3: distance 10
Job 0, Machine 0 -> Machine 2: distance 11
Job 0, Machine 0 -> Machine 1: distance 17
Job 0, Machine 3 -> Machine 2: distance 1
Job 0, Machine 3 -> Machine 1: distance 7
Job 0, Machine 2 -> Machine 1: distance 6
Job 1, Machine 0 -> Machine 3: distance 1
Job 1, Machine 0 -> Machine 1: distance 8
Job 1, Machine 0 -> Machine 2: distance 13
Job 1, Machine 3 -> Machine 1: distance 7
Job 1, Machine 3 -> Machine 2: distance 12
Job 1, Machine 1 -> Machine 2: distance 5
Job 2, Machine 3 -> Machine 2: distance 9
Job 2, Machine 3 -> Machine 1: distance 12
Job 2, Machine 3 -> Machine 0: distance 19
Job 2, Machine 2 -> Machine 1: distance 3
Job 2, Machine 2 -> Machine 0: distance 10
Job 2, Machine 1 -> Machine 0: distance 7
Job 3, Machine 1 -> Machine 3: distance 7
Job 3, Machine 1 -> Machine 0: distance 10
Job 3, Machine 1 -> Machine 2: distance 19
Job 3, Machine 3 -> Machine 0: distance 3
Job 3, Machine 3 -> Machine 2: distance 12
Job 3, Machine 0 -> Machine 2: distance 9
McCormic linearization
19.0 13.0 7
14.0 13.0 7
19.0 19.0 10
10.0 7.0 7
7.0 1.0 9
7.0 7.0 3
[(0, 1), (1, 2), (3, 2), (0, 0), (1, 3), (2, 1), (2, 3), (1, 0), (0, 3)]
obj:  0.6000000000000001
solutions:  1
+ x(0,0) + 0.10000000000000002x(1,0) 
C:  29.0
x(0,0) = 0.73	 x(0,1) = 19.06	 x(0,2) = 11.73	 x(0,3) = 10.73	 
x(1,0) = 2.73	 x(1,1) = 10.73	 x(1,2) = 20.27	 x(1,3) = 3.73	 
x(2,0) = 24.24	 x(2,1) = 17.24	 x(2,2) = 14.24	 x(2,3) = 5.24	 
x(3,0) = 10.00	 x(3,1) = 0.00	 x(3,2) = 19.00	 x(3,3) = 7.00	 
y(0,1,0) = 0.13	 y(1,0,0) = 0.87	 
y(0,2,0) = 0.56	 y(2,0,0) = 0.44	 
y(0,3,0) = 0.96	 y(3,0,0) = 0.04	 
y(1,2,0) = 0.51	 y(2,1,0) = 0.49	 
y(1,3,0) = 0.74	 y(3,1,0) = 0.26	 
y(2,3,0) = 0.00	 y(3,2,0) = 1.00	 
y(0,1,1) = 0.00	 y(1,0,1) = 1.00	 
y(0,2,1) = 0.20	 y(2,0,1) = 0.80	 
y(0,3,1) = 0.00	 y(3,0,1) = 1.00	 
y(1,2,1) = 0.39	 y(2,1,1) = 0.61	 
y(1,3,1) = 0.16	 y(3,1,1) = 0.84	 
y(2,3,1) = 0.00	 y(3,2,1) = 1.00	 
y(0,1,2) = 0.76	 y(1,0,2) = 0.24	 
y(0,2,2) = 0.46	 y(2,0,2) = 0.54	 
y(0,3,2) = 0.93	 y(3,0,2) = 0.07	 
y(1,2,2) = 0.00	 y(2,1,2) = 1.00	 
y(1,3,2) = 0.28	 y(3,1,2) = 0.72	 
y(2,3,2) = 0.92	 y(3,2,2) = 0.08	 
y(0,1,3) = 0.00	 y(1,0,3) = 1.00	 
y(0,2,3) = 0.15	 y(2,0,3) = 0.85	 
y(0,3,3) = 0.04	 y(3,0,3) = 0.96	 
y(1,2,3) = 0.33	 y(2,1,3) = 0.67	 
y(1,3,3) = 0.26	 y(3,1,3) = 0.74	 
y(2,3,3) = 0.19	 y(3,2,3) = 0.81	 
19.059504933051446 17.23890063424948 7
20.27145415573211 19.000000000000004 10
10.727272727272727 5.238900634249473 9
obj:  0.9174311926605514
solutions:  1
+ 0.09174311926605494x(0,0) + 0.08256880733944966x(3,0) + 0.009174311926605436x(1,0) 
[(0, 1), (3, 2), (0, 0), (3, 0), (2, 1), (2, 2), (1, 0), (0, 2), (0, 3)]
cliques:  1 mip: 56
C:  29.000000000000004
x(0,0) = 1.78	 x(0,1) = 18.78	 x(0,2) = 12.78	 x(0,3) = 11.78	 
x(1,0) = 1.24	 x(1,1) = 9.24	 x(1,2) = 21.00	 x(1,3) = 2.24	 
x(2,0) = 19.00	 x(2,1) = 12.00	 x(2,2) = 9.00	 x(2,3) = 0.00	 
x(3,0) = 10.00	 x(3,1) = 0.00	 x(3,2) = 19.00	 x(3,3) = 7.00	 
y(0,1,0) = 0.02	 y(1,0,0) = 0.98	 
y(0,2,0) = 0.61	 y(2,0,0) = 0.39	 
y(0,3,0) = 0.91	 y(3,0,0) = 0.09	 
y(1,2,0) = 0.84	 y(2,1,0) = 0.16	 
y(1,3,0) = 0.68	 y(3,1,0) = 0.32	 
y(2,3,0) = 0.00	 y(3,2,0) = 1.00	 
y(0,1,1) = 0.00	 y(1,0,1) = 1.00	 
y(0,2,1) = 0.01	 y(2,0,1) = 0.99	 
y(0,3,1) = 0.00	 y(3,0,1) = 1.00	 
y(1,2,1) = 0.61	 y(2,1,1) = 0.39	 
y(1,3,1) = 0.09	 y(3,1,1) = 0.91	 
y(2,3,1) = 0.00	 y(3,2,1) = 1.00	 
y(0,1,2) = 0.68	 y(1,0,2) = 0.32	 
y(0,2,2) = 0.06	 y(2,0,2) = 0.94	 
y(0,3,2) = 0.79	 y(3,0,2) = 0.21	 
y(1,2,2) = 0.00	 y(2,1,2) = 1.00	 
y(1,3,2) = 0.26	 y(3,1,2) = 0.74	 
y(2,3,2) = 0.68	 y(3,2,2) = 0.32	 
y(0,1,3) = 0.18	 y(1,0,3) = 0.82	 
y(0,2,3) = 0.13	 y(2,0,3) = 0.87	 
y(0,3,3) = 0.09	 y(3,0,3) = 0.91	 
y(1,2,3) = 0.21	 y(2,1,3) = 0.79	 
y(1,3,3) = 0.32	 y(3,1,3) = 0.68	 
y(2,3,3) = 0.40	 y(3,2,3) = 0.60	 
1.7758726711774402 1.2412732882255006 1
18.77587267117744 11.999999999999998 7
21.0 19.0 10
2.2412732882255004 0.0 9
obj:  0.24903036535838893
solutions:  1
+ 0.1111111111111111x(1,3) + 0.1111111111111111x(2,3) 
[(0, 1), (1, 2), (3, 2), (0, 0), (1, 3), (3, 0), (2, 1), (2, 3), (1, 0)]
cliques:  1 mip: 45
C:  29.640000000000004
x(0,0) = 1.90	 x(0,1) = 19.80	 x(0,2) = 13.80	 x(0,3) = 12.80	 
x(1,0) = 0.00	 x(1,1) = 8.00	 x(1,2) = 13.00	 x(1,3) = 1.00	 
x(2,0) = 27.00	 x(2,1) = 20.00	 x(2,2) = 17.00	 x(2,3) = 8.00	 
x(3,0) = 10.00	 x(3,1) = 0.00	 x(3,2) = 19.00	 x(3,3) = 7.00	 
y(0,1,0) = 0.00	 y(1,0,0) = 1.00	 
y(0,2,0) = 0.82	 y(2,0,0) = 0.18	 
y(0,3,0) = 0.91	 y(3,0,0) = 0.09	 
y(1,2,0) = 0.88	 y(2,1,0) = 0.12	 
y(1,3,0) = 0.75	 y(3,1,0) = 0.25	 
y(2,3,0) = 0.33	 y(3,2,0) = 0.67	 
y(0,1,1) = 0.00	 y(1,0,1) = 1.00	 
y(0,2,1) = 0.28	 y(2,0,1) = 0.72	 
y(0,3,1) = 0.00	 y(3,0,1) = 1.00	 
y(1,2,1) = 0.70	 y(2,1,1) = 0.30	 
y(1,3,1) = 0.04	 y(3,1,1) = 0.96	 
y(2,3,1) = 0.00	 y(3,2,1) = 1.00	 
y(0,1,2) = 0.51	 y(1,0,2) = 0.49	 
y(0,2,2) = 0.32	 y(2,0,2) = 0.68	 
y(0,3,2) = 0.96	 y(3,0,2) = 0.04	 
y(1,2,2) = 0.30	 y(2,1,2) = 0.70	 
y(1,3,2) = 0.92	 y(3,1,2) = 0.08	 
y(2,3,2) = 0.94	 y(3,2,2) = 0.06	 
y(0,1,3) = 0.00	 y(1,0,3) = 1.00	 
y(0,2,3) = 0.18	 y(2,0,3) = 0.82	 
y(0,3,3) = 0.14	 y(3,0,3) = 0.86	 
y(1,2,3) = 0.50	 y(2,1,3) = 0.50	 
y(1,3,3) = 0.73	 y(3,1,3) = 0.27	 
y(2,3,3) = 0.08	 y(3,2,3) = 0.92	 
13.799992893374734 13.0 8
12.799992893374734 7.999999999999998 9
7.999999999999998 7.0 3
obj:  0.7792994342617564
solutions:  1
+ 0.01493039964077233x(1,2) + 0.02346205657835654x(3,2) + 0.010103277952402331x(0,2) 
[(0, 1), (1, 2), (3, 2), (0, 0), (3, 0), (2, 1), (2, 2), (0, 3), (0, 2)]
cliques:  1 mip: 47
C:  33.20685319082051
x(0,0) = 1.00	 x(0,1) = 26.21	 x(0,2) = 20.21	 x(0,3) = 15.04	 
x(1,0) = 0.07	 x(1,1) = 16.46	 x(1,2) = 21.46	 x(1,3) = 2.96	 
x(2,0) = 28.46	 x(2,1) = 21.46	 x(2,2) = 18.46	 x(2,3) = 6.04	 
x(3,0) = 11.00	 x(3,1) = 1.00	 x(3,2) = 20.26	 x(3,3) = 8.00	 
y(0,1,0) = 0.00	 y(1,0,0) = 1.00	 
y(0,2,0) = 0.95	 y(2,0,0) = 0.05	 
y(0,3,0) = 1.00	 y(3,0,0) = 0.00	 
y(1,2,0) = 1.00	 y(2,1,0) = -0.00	 
y(1,3,0) = 0.59	 y(3,1,0) = 0.41	 
y(2,3,0) = 0.35	 y(3,2,0) = 0.65	 
y(0,1,1) = 0.00	 y(1,0,1) = 1.00	 
y(0,2,1) = 0.09	 y(2,0,1) = 0.91	 
y(0,3,1) = 0.00	 y(3,0,1) = 1.00	 
y(1,2,1) = 1.00	 y(2,1,1) = -0.00	 
y(1,3,1) = 0.35	 y(3,1,1) = 0.65	 
y(2,3,1) = 0.00	 y(3,2,1) = 1.00	 
y(0,1,2) = 0.66	 y(1,0,2) = 0.34	 
y(0,2,2) = 0.05	 y(2,0,2) = 0.95	 
y(0,3,2) = 0.67	 y(3,0,2) = 0.33	 
y(1,2,2) = 0.00	 y(2,1,2) = 1.00	 
y(1,3,2) = 0.63	 y(3,1,2) = 0.37	 
y(2,3,2) = 0.93	 y(3,2,2) = 0.07	 
y(0,1,3) = 0.00	 y(1,0,3) = 1.00	 
y(0,2,3) = 0.00	 y(2,0,3) = 1.00	 
y(0,3,3) = 0.20	 y(3,0,3) = 0.80	 
y(1,2,3) = 0.38	 y(2,1,3) = 0.62	 
y(1,3,3) = 0.39	 y(3,1,3) = 0.61	 
y(2,3,3) = 0.20	 y(3,2,3) = 0.80	 
0.9965517241379257 0.0655172413793051 1
26.206853190820503 21.459603898142785 7
20.20685319082051 18.459603898142788 3
21.459603898145232 20.264382269726504 10
obj:  1.0
erro
[(0, 1), (1, 2), (3, 2), (0, 0), (1, 3), (2, 1), (2, 2), (1, 0), (0, 2)]
cliques:  0 mip: 71
C:  33.99999714242373
x(0,0) = 0.86	 x(0,1) = 27.00	 x(0,2) = 21.00	 x(0,3) = 12.20	 
x(1,0) = 1.39	 x(1,1) = 12.51	 x(1,2) = 17.51	 x(1,3) = 4.09	 
x(2,0) = 28.00	 x(2,1) = 21.00	 x(2,2) = 18.00	 x(2,3) = 4.91	 
x(3,0) = 12.20	 x(3,1) = 2.20	 x(3,2) = 23.29	 x(3,3) = 9.20	 
y(0,1,0) = 0.06	 y(1,0,0) = 0.94	 
y(0,2,0) = 0.82	 y(2,0,0) = 0.18	 
y(0,3,0) = 0.61	 y(3,0,0) = 0.39	 
y(1,2,0) = 1.00	 y(2,1,0) = 0.00	 
y(1,3,0) = 1.00	 y(3,1,0) = 0.00	 
y(2,3,0) = 0.28	 y(3,2,0) = 0.72	 
y(0,1,1) = 0.00	 y(1,0,1) = 1.00	 
y(0,2,1) = 0.04	 y(2,0,1) = 0.96	 
y(0,3,1) = 0.00	 y(3,0,1) = 1.00	 
y(1,2,1) = 1.00	 y(2,1,1) = 0.00	 
y(1,3,1) = 0.14	 y(3,1,1) = 0.86	 
y(2,3,1) = 0.00	 y(3,2,1) = 1.00	 
y(0,1,2) = 0.38	 y(1,0,2) = 0.62	 
y(0,2,2) = 0.00	 y(2,0,2) = 1.00	 
y(0,3,2) = 0.45	 y(3,0,2) = 0.55	 
y(1,2,2) = 0.15	 y(2,1,2) = 0.85	 
y(1,3,2) = 0.91	 y(3,1,2) = 0.09	 
y(2,3,2) = 0.90	 y(3,2,2) = 0.10	 
y(0,1,3) = 0.00	 y(1,0,3) = 1.00	 
y(0,2,3) = 0.07	 y(2,0,3) = 0.93	 
y(0,3,3) = 0.00	 y(3,0,3) = 1.00	 
y(1,2,3) = 0.44	 y(2,1,3) = 0.56	 
y(1,3,3) = 0.78	 y(3,1,3) = 0.22	 
y(2,3,3) = 0.29	 y(3,2,3) = 0.71	 
26.999997142423723 20.999997142423727 7
20.999997142423727 17.5063200051727 8
12.202521618138048 4.910302462365497 9
obj:  1.0
erro
[(0, 1), (1, 2), (3, 2), (0, 0), (2, 1), (2, 2), (1, 0), (0, 2), (0, 3)]
cliques:  0 mip: 88
C:  33.99999714242374
x(0,0) = 1.00	 x(0,1) = 26.30	 x(0,2) = 19.95	 x(0,3) = 11.07	 
x(1,0) = 0.00	 x(1,1) = 8.91	 x(1,2) = 15.76	 x(1,3) = 1.00	 
x(2,0) = 30.33	 x(2,1) = 23.33	 x(2,2) = 20.33	 x(2,3) = 8.00	 
x(3,0) = 12.19	 x(3,1) = 0.76	 x(3,2) = 24.00	 x(3,3) = 7.76	 
y(0,1,0) = 0.00	 y(1,0,0) = 1.00	 
y(0,2,0) = 0.70	 y(2,0,0) = 0.30	 
y(0,3,0) = 0.61	 y(3,0,0) = 0.39	 
y(1,2,0) = 0.89	 y(2,1,0) = 0.11	 
y(1,3,0) = 1.00	 y(3,1,0) = 0.00	 
y(2,3,0) = 0.38	 y(3,2,0) = 0.62	 
y(0,1,1) = 0.00	 y(1,0,1) = 1.00	 
y(0,2,1) = 0.16	 y(2,0,1) = 0.84	 
y(0,3,1) = 0.00	 y(3,0,1) = 1.00	 
y(1,2,1) = 1.00	 y(2,1,1) = 0.00	 
y(1,3,1) = 0.05	 y(3,1,1) = 0.95	 
y(2,3,1) = 0.00	 y(3,2,1) = 1.00	 
y(0,1,2) = 0.12	 y(1,0,2) = 0.88	 
y(0,2,2) = 0.19	 y(2,0,2) = 0.81	 
y(0,3,2) = 0.43	 y(3,0,2) = 0.57	 
y(1,2,2) = 0.33	 y(2,1,2) = 0.67	 
y(1,3,2) = 1.00	 y(3,1,2) = 0.00	 
y(2,3,2) = 0.97	 y(3,2,2) = 0.03	 
y(0,1,3) = 0.05	 y(1,0,3) = 0.95	 
y(0,2,3) = 0.26	 y(2,0,3) = 0.74	 
y(0,3,3) = 0.00	 y(3,0,3) = 1.00	 
y(1,2,3) = 1.00	 y(2,1,3) = 0.00	 
y(1,3,3) = 0.99	 y(3,1,3) = 0.01	 
y(2,3,3) = 0.22	 y(3,2,3) = 0.78	 
0.9999940641318017 5.935868198357204e-05 1
26.2981299962124 23.333748887849225 7
19.952472585008014 15.761489207388868 8
11.0699505340887 7.999940641318017 9
7.999940641318017 7.756718404285353 3
obj:  0.9983319146316909
solutions:  1
+ 0.022759601706970157x(1,2) + 0.017780938833570396x(3,2) + 0.010668563300142245x(0,2) 
[(0, 1), (1, 2), (3, 2), (0, 0), (2, 1), (2, 2), (1, 0), (0, 2), (0, 3)]
cliques:  1 mip: 82
C:  34.26483764658104
x(0,0) = 0.95	 x(0,1) = 24.59	 x(0,2) = 18.59	 x(0,3) = 13.08	 
x(1,0) = 2.28	 x(1,1) = 10.28	 x(1,2) = 16.26	 x(1,3) = 3.28	 
x(2,0) = 24.72	 x(2,1) = 17.72	 x(2,2) = 14.72	 x(2,3) = 5.72	 
x(3,0) = 10.80	 x(3,1) = 0.80	 x(3,2) = 24.26	 x(3,3) = 7.80	 
y(0,1,0) = 0.10	 y(1,0,0) = 0.90	 
y(0,2,0) = 0.72	 y(2,0,0) = 0.28	 
y(0,3,0) = 0.57	 y(3,0,0) = 0.43	 
y(1,2,0) = 0.72	 y(2,1,0) = 0.28	 
y(1,3,0) = 1.00	 y(3,1,0) = 0.00	 
y(2,3,0) = 0.00	 y(3,2,0) = 1.00	 
y(0,1,1) = 0.00	 y(1,0,1) = 1.00	 
y(0,2,1) = 0.00	 y(2,0,1) = 1.00	 
y(0,3,1) = 0.00	 y(3,0,1) = 1.00	 
y(1,2,1) = 1.00	 y(2,1,1) = 0.00	 
y(1,3,1) = 0.10	 y(3,1,1) = 0.90	 
y(2,3,1) = 0.00	 y(3,2,1) = 1.00	 
y(0,1,2) = 0.43	 y(1,0,2) = 0.57	 
y(0,2,2) = 0.14	 y(2,0,2) = 0.86	 
y(0,3,2) = 0.94	 y(3,0,2) = 0.06	 
y(1,2,2) = 0.07	 y(2,1,2) = 0.93	 
y(1,3,2) = 1.00	 y(3,1,2) = 0.00	 
y(2,3,2) = 0.70	 y(3,2,2) = 0.30	 
y(0,1,3) = 0.01	 y(1,0,3) = 0.99	 
y(0,2,3) = 0.07	 y(2,0,3) = 0.93	 
y(0,3,3) = 0.00	 y(3,0,3) = 1.00	 
y(1,2,3) = 0.85	 y(2,1,3) = 0.15	 
y(1,3,3) = 0.67	 y(3,1,3) = 0.33	 
y(2,3,3) = 0.51	 y(3,2,3) = 0.49	 
24.593616942992053 17.718582479126397 7
18.593616942992053 16.264837646581036 8
16.264837646581036 14.718582479126393 3
13.076128559792306 5.718582479126392 9
obj:  0.9932593739390067
solutions:  1
+ 0.005025125628140711x(0,0) + 0.09045226130653272x(3,0) + 0.0050251256281406715x(1,0) 
[(0, 1), (1, 2), (3, 2), (0, 0), (3, 0), (2, 1), (2, 2), (1, 0), (0, 2)]
cliques:  1 mip: 100
C:  34.999996642162436
x(0,0) = 3.62	 x(0,1) = 25.64	 x(0,2) = 19.48	 x(0,3) = 13.62	 
x(1,0) = 2.62	 x(1,1) = 10.62	 x(1,2) = 16.19	 x(1,3) = 3.62	 
x(2,0) = 25.24	 x(2,1) = 18.24	 x(2,2) = 15.24	 x(2,3) = 5.38	 
x(3,0) = 10.71	 x(3,1) = 0.00	 x(3,2) = 23.93	 x(3,3) = 7.00	 
y(0,1,0) = 0.00	 y(1,0,0) = 1.00	 
y(0,2,0) = 0.69	 y(2,0,0) = 0.31	 
y(0,3,0) = 0.49	 y(3,0,0) = 0.51	 
y(1,2,0) = 0.80	 y(2,1,0) = 0.20	 
y(1,3,0) = 1.00	 y(3,1,0) = 0.00	 
y(2,3,0) = 0.00	 y(3,2,0) = 1.00	 
y(0,1,1) = 0.00	 y(1,0,1) = 1.00	 
y(0,2,1) = 0.00	 y(2,0,1) = 1.00	 
y(0,3,1) = 0.00	 y(3,0,1) = 1.00	 
y(1,2,1) = 1.00	 y(2,1,1) = 0.00	 
y(1,3,1) = 0.15	 y(3,1,1) = 0.85	 
y(2,3,1) = 0.00	 y(3,2,1) = 1.00	 
y(0,1,2) = 0.28	 y(1,0,2) = 0.72	 
y(0,2,2) = 0.07	 y(2,0,2) = 0.93	 
y(0,3,2) = 0.91	 y(3,0,2) = 0.09	 
y(1,2,2) = 0.09	 y(2,1,2) = 0.91	 
y(1,3,2) = 0.87	 y(3,1,2) = 0.13	 
y(2,3,2) = 0.53	 y(3,2,2) = 0.47	 
y(0,1,3) = 0.02	 y(1,0,3) = 0.98	 
y(0,2,3) = 0.03	 y(2,0,3) = 0.97	 
y(0,3,3) = 0.00	 y(3,0,3) = 1.00	 
y(1,2,3) = 0.83	 y(2,1,3) = 0.17	 
y(1,3,3) = 0.51	 y(3,1,3) = 0.49	 
y(2,3,3) = 0.72	 y(3,2,3) = 0.28	 
19.48075873811254 16.188041844620578 8
16.188041844620578 15.238052579971079 3
13.620378665005628 5.379621334994374 9
obj:  0.8952886748716946
solutions:  1
+ 0.10813823857302123x(3,3) + 0.020066889632106996x(2,3) + 0.0022296544035674435x(0,3) 
[(1, 2), (3, 2), (0, 0), (3, 3), (3, 0), (2, 3), (2, 2), (0, 3), (0, 2)]
cliques:  1 mip: 87
C:  34.999996642162436
x(0,0) = 3.24	 x(0,1) = 25.65	 x(0,2) = 19.51	 x(0,3) = 13.24	 
x(1,0) = 2.24	 x(1,1) = 10.69	 x(1,2) = 16.17	 x(1,3) = 3.69	 
x(2,0) = 25.32	 x(2,1) = 18.32	 x(2,2) = 15.32	 x(2,3) = 5.31	 
x(3,0) = 10.99	 x(3,1) = 0.99	 x(3,2) = 23.93	 x(3,3) = 7.99	 
y(0,1,0) = 0.00	 y(1,0,0) = 1.00	 
y(0,2,0) = 0.71	 y(2,0,0) = 0.29	 
y(0,3,0) = 0.51	 y(3,0,0) = 0.49	 
y(1,2,0) = 0.81	 y(2,1,0) = 0.19	 
y(1,3,0) = 1.00	 y(3,1,0) = 0.00	 
y(2,3,0) = 0.00	 y(3,2,0) = 1.00	 
y(0,1,1) = 0.00	 y(1,0,1) = 1.00	 
y(0,2,1) = 0.00	 y(2,0,1) = 1.00	 
y(0,3,1) = 0.00	 y(3,0,1) = 1.00	 
y(1,2,1) = 1.00	 y(2,1,1) = 0.00	 
y(1,3,1) = 0.11	 y(3,1,1) = 0.89	 
y(2,3,1) = 0.00	 y(3,2,1) = 1.00	 
y(0,1,2) = 0.29	 y(1,0,2) = 0.71	 
y(0,2,2) = 0.06	 y(2,0,2) = 0.94	 
y(0,3,2) = 0.91	 y(3,0,2) = 0.09	 
y(1,2,2) = 0.09	 y(2,1,2) = 0.91	 
y(1,3,2) = 0.87	 y(3,1,2) = 0.13	 
y(2,3,2) = 0.53	 y(3,2,2) = 0.47	 
y(0,1,3) = 0.00	 y(1,0,3) = 1.00	 
y(0,2,3) = 0.05	 y(2,0,3) = 0.95	 
y(0,3,3) = 0.00	 y(3,0,3) = 1.00	 
y(1,2,3) = 0.83	 y(2,1,3) = 0.17	 
y(1,3,3) = 0.64	 y(3,1,3) = 0.36	 
y(2,3,3) = 0.76	 y(3,2,3) = 0.24	 
3.238085110520892 2.2380851105208923 1
19.506392463086033 16.172780574305794 8
16.172780574305794 15.323079657439182 3
13.238085110520892 5.313786968605096 9
obj:  1.0000000000000002
erro
[(1, 2), (3, 2), (0, 0), (3, 0), (2, 3), (2, 2), (1, 0), (0, 2), (0, 3)]
cliques:  0 mip: 73
C:  34.999996642162436
x(0,0) = 3.24	 x(0,1) = 25.65	 x(0,2) = 19.51	 x(0,3) = 13.24	 
x(1,0) = 2.24	 x(1,1) = 10.69	 x(1,2) = 16.17	 x(1,3) = 3.69	 
x(2,0) = 25.32	 x(2,1) = 18.32	 x(2,2) = 15.32	 x(2,3) = 5.31	 
x(3,0) = 10.99	 x(3,1) = 0.99	 x(3,2) = 23.93	 x(3,3) = 7.99	 
y(0,1,0) = 0.00	 y(1,0,0) = 1.00	 
y(0,2,0) = 0.71	 y(2,0,0) = 0.29	 
y(0,3,0) = 0.51	 y(3,0,0) = 0.49	 
y(1,2,0) = 0.81	 y(2,1,0) = 0.19	 
y(1,3,0) = 1.00	 y(3,1,0) = 0.00	 
y(2,3,0) = 0.00	 y(3,2,0) = 1.00	 
y(0,1,1) = 0.00	 y(1,0,1) = 1.00	 
y(0,2,1) = 0.00	 y(2,0,1) = 1.00	 
y(0,3,1) = 0.00	 y(3,0,1) = 1.00	 
y(1,2,1) = 1.00	 y(2,1,1) = 0.00	 
y(1,3,1) = 0.11	 y(3,1,1) = 0.89	 
y(2,3,1) = 0.00	 y(3,2,1) = 1.00	 
y(0,1,2) = 0.29	 y(1,0,2) = 0.71	 
y(0,2,2) = 0.06	 y(2,0,2) = 0.94	 
y(0,3,2) = 0.91	 y(3,0,2) = 0.09	 
y(1,2,2) = 0.09	 y(2,1,2) = 0.91	 
y(1,3,2) = 0.87	 y(3,1,2) = 0.13	 
y(2,3,2) = 0.53	 y(3,2,2) = 0.47	 
y(0,1,3) = 0.00	 y(1,0,3) = 1.00	 
y(0,2,3) = 0.05	 y(2,0,3) = 0.95	 
y(0,3,3) = 0.00	 y(3,0,3) = 1.00	 
y(1,2,3) = 0.83	 y(2,1,3) = 0.17	 
y(1,3,3) = 0.64	 y(3,1,3) = 0.36	 
y(2,3,3) = 0.76	 y(3,2,3) = 0.24	 
3.238085110520892 2.2380851105208923 1
19.506392463086033 16.172780574305794 8
16.172780574305794 15.323079657439182 3
13.238085110520892 5.313786968605096 9
obj:  1.0000000000000002
erro
[(1, 2), (3, 2), (0, 0), (3, 0), (2, 3), (2, 2), (1, 0), (0, 2), (0, 3)]
cliques:  0 mip: 73
C:  34.999996642162436
x(0,0) = 3.24	 x(0,1) = 25.65	 x(0,2) = 19.51	 x(0,3) = 13.24	 
x(1,0) = 2.24	 x(1,1) = 10.69	 x(1,2) = 16.17	 x(1,3) = 3.69	 
x(2,0) = 25.32	 x(2,1) = 18.32	 x(2,2) = 15.32	 x(2,3) = 5.31	 
x(3,0) = 10.99	 x(3,1) = 0.99	 x(3,2) = 23.93	 x(3,3) = 7.99	 
y(0,1,0) = 0.00	 y(1,0,0) = 1.00	 
y(0,2,0) = 0.71	 y(2,0,0) = 0.29	 
y(0,3,0) = 0.51	 y(3,0,0) = 0.49	 
y(1,2,0) = 0.81	 y(2,1,0) = 0.19	 
y(1,3,0) = 1.00	 y(3,1,0) = 0.00	 
y(2,3,0) = 0.00	 y(3,2,0) = 1.00	 
y(0,1,1) = 0.00	 y(1,0,1) = 1.00	 
y(0,2,1) = 0.00	 y(2,0,1) = 1.00	 
y(0,3,1) = 0.00	 y(3,0,1) = 1.00	 
y(1,2,1) = 1.00	 y(2,1,1) = 0.00	 
y(1,3,1) = 0.11	 y(3,1,1) = 0.89	 
y(2,3,1) = 0.00	 y(3,2,1) = 1.00	 
y(0,1,2) = 0.29	 y(1,0,2) = 0.71	 
y(0,2,2) = 0.06	 y(2,0,2) = 0.94	 
y(0,3,2) = 0.91	 y(3,0,2) = 0.09	 
y(1,2,2) = 0.09	 y(2,1,2) = 0.91	 
y(1,3,2) = 0.87	 y(3,1,2) = 0.13	 
y(2,3,2) = 0.53	 y(3,2,2) = 0.47	 
y(0,1,3) = 0.00	 y(1,0,3) = 1.00	 
y(0,2,3) = 0.05	 y(2,0,3) = 0.95	 
y(0,3,3) = 0.00	 y(3,0,3) = 1.00	 
y(1,2,3) = 0.83	 y(2,1,3) = 0.17	 
y(1,3,3) = 0.64	 y(3,1,3) = 0.36	 
y(2,3,3) = 0.76	 y(3,2,3) = 0.24	 
3.238085110520892 2.2380851105208923 1
19.506392463086033 16.172780574305794 8
16.172780574305794 15.323079657439182 3
13.238085110520892 5.313786968605096 9
obj:  1.0000000000000002
erro
[(1, 2), (3, 2), (0, 0), (3, 0), (2, 3), (2, 2), (1, 0), (0, 2), (0, 3)]
cliques:  0 mip: 73
C:  34.999996642162436
x(0,0) = 3.24	 x(0,1) = 25.65	 x(0,2) = 19.51	 x(0,3) = 13.24	 
x(1,0) = 2.24	 x(1,1) = 10.69	 x(1,2) = 16.17	 x(1,3) = 3.69	 
x(2,0) = 25.32	 x(2,1) = 18.32	 x(2,2) = 15.32	 x(2,3) = 5.31	 
x(3,0) = 10.99	 x(3,1) = 0.99	 x(3,2) = 23.93	 x(3,3) = 7.99	 
y(0,1,0) = 0.00	 y(1,0,0) = 1.00	 
y(0,2,0) = 0.71	 y(2,0,0) = 0.29	 
y(0,3,0) = 0.51	 y(3,0,0) = 0.49	 
y(1,2,0) = 0.81	 y(2,1,0) = 0.19	 
y(1,3,0) = 1.00	 y(3,1,0) = 0.00	 
y(2,3,0) = 0.00	 y(3,2,0) = 1.00	 
y(0,1,1) = 0.00	 y(1,0,1) = 1.00	 
y(0,2,1) = 0.00	 y(2,0,1) = 1.00	 
y(0,3,1) = 0.00	 y(3,0,1) = 1.00	 
y(1,2,1) = 1.00	 y(2,1,1) = 0.00	 
y(1,3,1) = 0.11	 y(3,1,1) = 0.89	 
y(2,3,1) = 0.00	 y(3,2,1) = 1.00	 
y(0,1,2) = 0.29	 y(1,0,2) = 0.71	 
y(0,2,2) = 0.06	 y(2,0,2) = 0.94	 
y(0,3,2) = 0.91	 y(3,0,2) = 0.09	 
y(1,2,2) = 0.09	 y(2,1,2) = 0.91	 
y(1,3,2) = 0.87	 y(3,1,2) = 0.13	 
y(2,3,2) = 0.53	 y(3,2,2) = 0.47	 
y(0,1,3) = 0.00	 y(1,0,3) = 1.00	 
y(0,2,3) = 0.05	 y(2,0,3) = 0.95	 
y(0,3,3) = 0.00	 y(3,0,3) = 1.00	 
y(1,2,3) = 0.83	 y(2,1,3) = 0.17	 
y(1,3,3) = 0.64	 y(3,1,3) = 0.36	 
y(2,3,3) = 0.76	 y(3,2,3) = 0.24	 
3.238085110520892 2.2380851105208923 1
19.506392463086033 16.172780574305794 8
16.172780574305794 15.323079657439182 3
13.238085110520892 5.313786968605096 9
obj:  1.0000000000000002
erro
[(1, 2), (3, 2), (0, 0), (3, 0), (2, 3), (2, 2), (1, 0), (0, 2), (0, 3)]
cliques:  0 mip: 73
C:  34.999996642162436
x(0,0) = 3.24	 x(0,1) = 25.65	 x(0,2) = 19.51	 x(0,3) = 13.24	 
x(1,0) = 2.24	 x(1,1) = 10.69	 x(1,2) = 16.17	 x(1,3) = 3.69	 
x(2,0) = 25.32	 x(2,1) = 18.32	 x(2,2) = 15.32	 x(2,3) = 5.31	 
x(3,0) = 10.99	 x(3,1) = 0.99	 x(3,2) = 23.93	 x(3,3) = 7.99	 
y(0,1,0) = 0.00	 y(1,0,0) = 1.00	 
y(0,2,0) = 0.71	 y(2,0,0) = 0.29	 
y(0,3,0) = 0.51	 y(3,0,0) = 0.49	 
y(1,2,0) = 0.81	 y(2,1,0) = 0.19	 
y(1,3,0) = 1.00	 y(3,1,0) = 0.00	 
y(2,3,0) = 0.00	 y(3,2,0) = 1.00	 
y(0,1,1) = 0.00	 y(1,0,1) = 1.00	 
y(0,2,1) = 0.00	 y(2,0,1) = 1.00	 
y(0,3,1) = 0.00	 y(3,0,1) = 1.00	 
y(1,2,1) = 1.00	 y(2,1,1) = 0.00	 
y(1,3,1) = 0.11	 y(3,1,1) = 0.89	 
y(2,3,1) = 0.00	 y(3,2,1) = 1.00	 
y(0,1,2) = 0.29	 y(1,0,2) = 0.71	 
y(0,2,2) = 0.06	 y(2,0,2) = 0.94	 
y(0,3,2) = 0.91	 y(3,0,2) = 0.09	 
y(1,2,2) = 0.09	 y(2,1,2) = 0.91	 
y(1,3,2) = 0.87	 y(3,1,2) = 0.13	 
y(2,3,2) = 0.53	 y(3,2,2) = 0.47	 
y(0,1,3) = 0.00	 y(1,0,3) = 1.00	 
y(0,2,3) = 0.05	 y(2,0,3) = 0.95	 
y(0,3,3) = 0.00	 y(3,0,3) = 1.00	 
y(1,2,3) = 0.83	 y(2,1,3) = 0.17	 
y(1,3,3) = 0.64	 y(3,1,3) = 0.36	 
y(2,3,3) = 0.76	 y(3,2,3) = 0.24	 
3.238085110520892 2.2380851105208923 1
19.506392463086033 16.172780574305794 8
16.172780574305794 15.323079657439182 3
13.238085110520892 5.313786968605096 9
obj:  1.0000000000000002
erro
[(1, 2), (3, 2), (0, 0), (3, 0), (2, 3), (2, 2), (1, 0), (0, 2), (0, 3)]
cliques:  0 mip: 73
C:  34.999996642162436
x(0,0) = 3.24	 x(0,1) = 25.65	 x(0,2) = 19.51	 x(0,3) = 13.24	 
x(1,0) = 2.24	 x(1,1) = 10.69	 x(1,2) = 16.17	 x(1,3) = 3.69	 
x(2,0) = 25.32	 x(2,1) = 18.32	 x(2,2) = 15.32	 x(2,3) = 5.31	 
x(3,0) = 10.99	 x(3,1) = 0.99	 x(3,2) = 23.93	 x(3,3) = 7.99	 
y(0,1,0) = 0.00	 y(1,0,0) = 1.00	 
y(0,2,0) = 0.71	 y(2,0,0) = 0.29	 
y(0,3,0) = 0.51	 y(3,0,0) = 0.49	 
y(1,2,0) = 0.81	 y(2,1,0) = 0.19	 
y(1,3,0) = 1.00	 y(3,1,0) = 0.00	 
y(2,3,0) = 0.00	 y(3,2,0) = 1.00	 
y(0,1,1) = 0.00	 y(1,0,1) = 1.00	 
y(0,2,1) = 0.00	 y(2,0,1) = 1.00	 
y(0,3,1) = 0.00	 y(3,0,1) = 1.00	 
y(1,2,1) = 1.00	 y(2,1,1) = 0.00	 
y(1,3,1) = 0.11	 y(3,1,1) = 0.89	 
y(2,3,1) = 0.00	 y(3,2,1) = 1.00	 
y(0,1,2) = 0.29	 y(1,0,2) = 0.71	 
y(0,2,2) = 0.06	 y(2,0,2) = 0.94	 
y(0,3,2) = 0.91	 y(3,0,2) = 0.09	 
y(1,2,2) = 0.09	 y(2,1,2) = 0.91	 
y(1,3,2) = 0.87	 y(3,1,2) = 0.13	 
y(2,3,2) = 0.53	 y(3,2,2) = 0.47	 
y(0,1,3) = 0.00	 y(1,0,3) = 1.00	 
y(0,2,3) = 0.05	 y(2,0,3) = 0.95	 
y(0,3,3) = 0.00	 y(3,0,3) = 1.00	 
y(1,2,3) = 0.83	 y(2,1,3) = 0.17	 
y(1,3,3) = 0.64	 y(3,1,3) = 0.36	 
y(2,3,3) = 0.76	 y(3,2,3) = 0.24	 
3.238085110520892 2.2380851105208923 1
19.506392463086033 16.172780574305794 8
16.172780574305794 15.323079657439182 3
13.238085110520892 5.313786968605096 9
obj:  1.0000000000000002
erro
[(1, 2), (3, 2), (0, 0), (3, 0), (2, 3), (2, 2), (1, 0), (0, 2), (0, 3)]
cliques:  0 mip: 73
C:  34.999996642162436
x(0,0) = 3.24	 x(0,1) = 25.65	 x(0,2) = 19.51	 x(0,3) = 13.24	 
x(1,0) = 2.24	 x(1,1) = 10.69	 x(1,2) = 16.17	 x(1,3) = 3.69	 
x(2,0) = 25.32	 x(2,1) = 18.32	 x(2,2) = 15.32	 x(2,3) = 5.31	 
x(3,0) = 10.99	 x(3,1) = 0.99	 x(3,2) = 23.93	 x(3,3) = 7.99	 
y(0,1,0) = 0.00	 y(1,0,0) = 1.00	 
y(0,2,0) = 0.71	 y(2,0,0) = 0.29	 
y(0,3,0) = 0.51	 y(3,0,0) = 0.49	 
y(1,2,0) = 0.81	 y(2,1,0) = 0.19	 
y(1,3,0) = 1.00	 y(3,1,0) = 0.00	 
y(2,3,0) = 0.00	 y(3,2,0) = 1.00	 
y(0,1,1) = 0.00	 y(1,0,1) = 1.00	 
y(0,2,1) = 0.00	 y(2,0,1) = 1.00	 
y(0,3,1) = 0.00	 y(3,0,1) = 1.00	 
y(1,2,1) = 1.00	 y(2,1,1) = 0.00	 
y(1,3,1) = 0.11	 y(3,1,1) = 0.89	 
y(2,3,1) = 0.00	 y(3,2,1) = 1.00	 
y(0,1,2) = 0.29	 y(1,0,2) = 0.71	 
y(0,2,2) = 0.06	 y(2,0,2) = 0.94	 
y(0,3,2) = 0.91	 y(3,0,2) = 0.09	 
y(1,2,2) = 0.09	 y(2,1,2) = 0.91	 
y(1,3,2) = 0.87	 y(3,1,2) = 0.13	 
y(2,3,2) = 0.53	 y(3,2,2) = 0.47	 
y(0,1,3) = 0.00	 y(1,0,3) = 1.00	 
y(0,2,3) = 0.05	 y(2,0,3) = 0.95	 
y(0,3,3) = 0.00	 y(3,0,3) = 1.00	 
y(1,2,3) = 0.83	 y(2,1,3) = 0.17	 
y(1,3,3) = 0.64	 y(3,1,3) = 0.36	 
y(2,3,3) = 0.76	 y(3,2,3) = 0.24	 
3.238085110520892 2.2380851105208923 1
19.506392463086033 16.172780574305794 8
16.172780574305794 15.323079657439182 3
13.238085110520892 5.313786968605096 9
obj:  1.0000000000000002
erro
[(1, 2), (3, 2), (0, 0), (3, 0), (2, 3), (2, 2), (1, 0), (0, 2), (0, 3)]
cliques:  0 mip: 0
iterações: 15 cortes cliques encontrados: 7 mip: 1032 objective:  34.999996642162436
Coin0506I Presolve 157 (-171) rows, 90 (-71) columns and 490 (-260) elements
Clp1000I sum of infeasibilities 1.79124e-08 - average 1.14092e-10, 0 fixed columns
Coin0506I Presolve 157 (0) rows, 90 (0) columns and 490 (0) elements
Clp0029I End of values pass after 90 iterations
Clp0000I Optimal - objective value 29
Clp0000I Optimal - objective value 29
Coin0511I After Postsolve, objective 29, infeasibilities - dual 0 (0), primal 0 (0)
Clp0000I Optimal - objective value 29
Clp0000I Optimal - objective value 29
Clp0000I Optimal - objective value 29
Coin0511I After Postsolve, objective 29, infeasibilities - dual 0 (0), primal 0 (0)
Clp0032I Optimal objective 29 - 0 iterations time 0.012, Presolve 0.00, Idiot 0.01
Coin3009W Conflict graph built in 0.000 seconds, density: 0.090%
